words_hard_train/5713.qaiger
aag 126 16 0 1 110
2
4
8
12
16
20
28
30
34
38
42
68
112
120
216
224
252
6 2 4
10 6 8
14 10 12
18 14 16
22 19 21
24 18 20
26 23 25
32 29 31
36 32 35
40 36 39
44 41 42
46 40 43
48 45 47
50 33 34
52 51 37
54 28 30
56 50 55
58 53 57
60 37 38
62 61 41
64 58 63
66 49 64
70 47 68
72 46 69
74 71 73
76 67 74
78 48 65
80 79 67
82 59 62
84 83 65
86 55 33
88 86 29
90 87 52
92 91 57
94 88 93
96 84 94
98 80 96
100 76 99
102 98 75
104 66 75
106 103 105
108 101 106
110 27 109
114 25 113
116 24 112
118 115 117
122 73 120
124 72 121
126 123 125
128 105 126
130 104 127
132 129 131
134 133 103
136 132 102
138 135 137
140 119 139
142 111 141
144 11 13
146 145 15
148 85 95
150 149 97
152 147 151
154 15 17
156 155 19
158 81 97
160 159 99
162 157 161
164 153 163
166 89 92
168 167 95
170 5 30
172 171 7
174 3 29
176 4 31
178 174 177
180 172 179
182 7 9
184 183 11
186 180 184
188 169 187
190 181 185
192 189 191
194 146 150
196 193 195
198 164 197
200 156 160
202 199 201
204 26 108
206 202 205
208 142 207
210 118 138
212 209 211
214 213 136
218 116 217
220 117 216
222 219 221
226 124 225
228 125 224
230 227 229
232 230 130
234 231 131
236 233 235
238 222 236
240 215 239
242 212 137
244 223 237
246 243 245
248 240 247
250 214 238
252 249 251
i0 2 y1[0]
i1 2 y1[1]
i2 2 y1[2]
i3 2 y1[3]
i4 2 y1[4]
i5 2 y1[5]
i6 1 x2[0]
i7 1 x2[1]
i8 1 x2[2]
i9 1 x2[3]
i10 1 x2[4]
i11 1 x2[5]
i12 2 y1[6]
i13 1 x2[6]
i14 2 y1[7]
i15 1 x2[7]
o0 bv[0]
c
simplified
  <=
    subtract
      invert
        1
      1 x2
    add
      2 y1
      1
