words_hard_train/5713.qaiger.qdimacs
p cnf 126 331
a 34 14 15 112 17 19 21 60 0
e 1 2 3 4 5 6 7 8 9 10 11 12 13 16 18 20 22 23 24 25 26 27 28 29 30 31 32 33 35 36 37 38 39 40 41 42 43 44 45 46 47 48 49 50 51 52 53 54 55 56 57 58 59 61 62 63 64 65 66 67 68 69 70 71 72 73 74 75 76 77 78 79 80 81 82 83 84 85 86 87 88 89 90 91 92 93 94 95 96 97 98 99 100 101 102 103 104 105 106 107 108 109 110 111 113 114 115 116 117 118 119 120 121 122 123 124 125 126 0
-1 -2 3 0
1 -3 0
2 -3 0
-3 -4 5 0
3 -5 0
4 -5 0
-5 -6 7 0
5 -7 0
6 -7 0
-7 -8 9 0
7 -9 0
8 -9 0
9 10 11 0
-9 -11 0
-10 -11 0
-9 -10 12 0
9 -12 0
10 -12 0
11 12 13 0
-11 -13 0
-12 -13 0
14 15 16 0
-14 -16 0
-15 -16 0
-16 17 18 0
16 -18 0
-17 -18 0
-18 19 20 0
18 -20 0
-19 -20 0
20 -21 22 0
-20 -22 0
21 -22 0
-20 21 23 0
20 -23 0
-21 -23 0
22 23 24 0
-22 -24 0
-23 -24 0
16 -17 25 0
-16 -25 0
17 -25 0
25 18 26 0
-25 -26 0
-18 -26 0
-14 -15 27 0
14 -27 0
15 -27 0
-25 27 28 0
25 -28 0
-27 -28 0
26 28 29 0
-26 -29 0
-28 -29 0
18 -19 30 0
-18 -30 0
19 -30 0
30 20 31 0
-30 -31 0
-20 -31 0
-29 31 32 0
29 -32 0
-31 -32 0
24 -32 33 0
-24 -33 0
32 -33 0
23 -34 35 0
-23 -35 0
34 -35 0
-23 34 36 0
23 -36 0
-34 -36 0
35 36 37 0
-35 -37 0
-36 -37 0
33 -37 38 0
-33 -38 0
37 -38 0
-24 32 39 0
24 -39 0
-32 -39 0
39 33 40 0
-39 -40 0
-33 -40 0
29 -31 41 0
-29 -41 0
31 -41 0
41 32 42 0
-41 -42 0
-32 -42 0
27 16 43 0
-27 -43 0
-16 -43 0
-43 14 44 0
43 -44 0
-14 -44 0
43 -26 45 0
-43 -45 0
26 -45 0
45 28 46 0
-45 -46 0
-28 -46 0
-44 46 47 0
44 -47 0
-46 -47 0
-42 -47 48 0
42 -48 0
47 -48 0
-40 -48 49 0
40 -49 0
48 -49 0
-38 49 50 0
38 -50 0
-49 -50 0
-49 37 51 0
49 -51 0
-37 -51 0
-33 37 52 0
33 -52 0
-37 -52 0
51 52 53 0
-51 -53 0
-52 -53 0
50 -53 54 0
-50 -54 0
53 -54 0
13 54 55 0
-13 -55 0
-54 -55 0
12 56 57 0
-12 -57 0
-56 -57 0
-12 -56 58 0
12 -58 0
56 -58 0
57 58 59 0
-57 -59 0
-58 -59 0
36 -60 61 0
-36 -61 0
60 -61 0
-36 60 62 0
36 -62 0
-60 -62 0
61 62 63 0
-61 -63 0
-62 -63 0
52 -63 64 0
-52 -64 0
63 -64 0
-52 63 65 0
52 -65 0
-63 -65 0
64 65 66 0
-64 -66 0
-65 -66 0
66 51 67 0
-66 -67 0
-51 -67 0
-66 -51 68 0
66 -68 0
51 -68 0
67 68 69 0
-67 -69 0
-68 -69 0
59 69 70 0
-59 -70 0
-69 -70 0
55 70 71 0
-55 -71 0
-70 -71 0
5 6 72 0
-5 -72 0
-6 -72 0
72 7 73 0
-72 -73 0
-7 -73 0
42 47 74 0
-42 -74 0
-47 -74 0
74 48 75 0
-74 -75 0
-48 -75 0
73 75 76 0
-73 -76 0
-75 -76 0
7 8 77 0
-7 -77 0
-8 -77 0
77 9 78 0
-77 -78 0
-9 -78 0
40 48 79 0
-40 -79 0
-48 -79 0
79 49 80 0
-79 -80 0
-49 -80 0
78 80 81 0
-78 -81 0
-80 -81 0
76 81 82 0
-76 -82 0
-81 -82 0
44 -46 83 0
-44 -83 0
46 -83 0
83 47 84 0
-83 -84 0
-47 -84 0
2 -15 85 0
-2 -85 0
15 -85 0
85 3 86 0
-85 -86 0
-3 -86 0
1 14 87 0
-1 -87 0
-14 -87 0
-2 15 88 0
2 -88 0
-15 -88 0
-87 88 89 0
87 -89 0
-88 -89 0
-86 89 90 0
86 -90 0
-89 -90 0
3 4 91 0
-3 -91 0
-4 -91 0
91 5 92 0
-91 -92 0
-5 -92 0
-90 -92 93 0
90 -93 0
92 -93 0
84 93 94 0
-84 -94 0
-93 -94 0
90 92 95 0
-90 -95 0
-92 -95 0
94 95 96 0
-94 -96 0
-95 -96 0
-73 -75 97 0
73 -97 0
75 -97 0
96 97 98 0
-96 -98 0
-97 -98 0
-82 98 99 0
82 -99 0
-98 -99 0
-78 -80 100 0
78 -100 0
80 -100 0
99 100 101 0
-99 -101 0
-100 -101 0
-13 -54 102 0
13 -102 0
54 -102 0
-101 102 103 0
101 -103 0
-102 -103 0
-71 103 104 0
71 -104 0
-103 -104 0
-59 -69 105 0
59 -105 0
69 -105 0
104 105 106 0
-104 -106 0
-105 -106 0
106 -68 107 0
-106 -107 0
68 -107 0
-58 108 109 0
58 -109 0
-108 -109 0
58 -108 110 0
-58 -110 0
108 -110 0
109 110 111 0
-109 -111 0
-110 -111 0
-62 112 113 0
62 -113 0
-112 -113 0
62 -112 114 0
-62 -114 0
112 -114 0
113 114 115 0
-113 -115 0
-114 -115 0
-115 -65 116 0
115 -116 0
65 -116 0
115 65 117 0
-115 -117 0
-65 -117 0
116 117 118 0
-116 -118 0
-117 -118 0
-111 -118 119 0
111 -119 0
118 -119 0
107 119 120 0
-107 -120 0
-119 -120 0
-106 68 121 0
106 -121 0
-68 -121 0
111 118 122 0
-111 -122 0
-118 -122 0
121 122 123 0
-121 -123 0
-122 -123 0
-120 123 124 0
120 -124 0
-123 -124 0
-107 -119 125 0
107 -125 0
119 -125 0
124 125 126 0
-124 -126 0
-125 -126 0
126 0
